p cnf 964 2475
51 -2 -697 0
-51 2 0
-51 697 0
52 -51 -3 0
-52 51 0
-52 3 0
53 -4 -1 0
-53 4 0
-53 1 0
54 -53 -5 0
-54 53 0
-54 5 0
55 -698 -699 0
-55 698 0
-55 699 0
56 -7 -700 0
-56 7 0
-56 700 0
57 -56 -8 0
-57 56 0
-57 8 0
58 -701 -55 0
-58 701 0
-58 55 0
59 -702 -8 0
-59 702 0
-59 8 0
60 -59 -10 0
-60 59 0
-60 10 0
61 -703 -58 0
-61 703 0
-61 58 0
62 -11 -702 0
-62 11 0
-62 702 0
63 -62 -12 0
-63 62 0
-63 12 0
64 -704 -61 0
-64 704 0
-64 61 0
65 -705 -13 0
-65 705 0
-65 13 0
66 -65 -15 0
-66 65 0
-66 15 0
67 -706 -64 0
-67 706 0
-67 64 0
68 -707 -708 0
-68 707 0
-68 708 0
69 -68 -4 0
-69 68 0
-69 4 0
70 -709 -67 0
-70 709 0
-70 67 0
71 -710 -711 0
-71 710 0
-71 711 0
72 -71 -712 0
-72 71 0
-72 712 0
73 -713 -70 0
-73 713 0
-73 70 0
74 -714 -715 0
-74 714 0
-74 715 0
75 -74 -716 0
-75 74 0
-75 716 0
76 -717 -73 0
-76 717 0
-76 73 0
77 -21 -9 0
-77 21 0
-77 9 0
78 -77 -22 0
-78 77 0
-78 22 0
79 -718 -76 0
-79 718 0
-79 76 0
80 -719 -720 0
-80 719 0
-80 720 0
81 -80 -25 0
-81 80 0
-81 25 0
82 -721 -79 0
-82 721 0
-82 79 0
83 -722 -19 0
-83 722 0
-83 19 0
84 -83 -24 0
-84 83 0
-84 24 0
85 -723 -82 0
-85 723 0
-85 82 0
86 -16 -697 0
-86 16 0
-86 697 0
87 -86 -724 0
-87 86 0
-87 724 0
88 -725 -85 0
-88 725 0
-88 85 0
89 -28 -711 0
-89 28 0
-89 711 0
90 -89 -726 0
-90 89 0
-90 726 0
91 -727 -88 0
-91 727 0
-91 88 0
92 -30 -714 0
-92 30 0
-92 714 0
93 -92 -31 0
-93 92 0
-93 31 0
94 -728 -91 0
-94 728 0
-94 91 0
95 -700 -4 0
-95 700 0
-95 4 0
96 -95 -729 0
-96 95 0
-96 729 0
97 -730 -94 0
-97 730 0
-97 94 0
98 -17 -4 0
-98 17 0
-98 4 0
99 -98 -715 0
-99 98 0
-99 715 0
100 -731 -97 0
-100 731 0
-100 97 0
101 -33 -732 0
-101 33 0
-101 732 0
102 -101 -710 0
-102 101 0
-102 710 0
103 -733 -100 0
-103 733 0
-103 100 0
104 -732 -726 0
-104 732 0
-104 726 0
105 -104 -34 0
-105 104 0
-105 34 0
106 -734 -103 0
-106 734 0
-106 103 0
107 -36 -35 0
-107 36 0
-107 35 0
108 -107 -726 0
-108 107 0
-108 726 0
109 -735 -106 0
-109 735 0
-109 106 0
110 -736 -707 0
-110 736 0
-110 707 0
111 -110 -705 0
-111 110 0
-111 705 0
112 -737 -109 0
-112 737 0
-112 109 0
113 -738 -739 0
-113 738 0
-113 739 0
114 -113 -24 0
-114 113 0
-114 24 0
115 -740 -112 0
-115 740 0
-115 112 0
116 -37 -36 0
-116 37 0
-116 36 0
117 -116 -21 0
-117 116 0
-117 21 0
118 -741 -115 0
-118 741 0
-118 115 0
119 -742 -743 0
-119 742 0
-119 743 0
120 -119 -40 0
-120 119 0
-120 40 0
121 -744 -118 0
-121 744 0
-121 118 0
122 -745 -746 0
-122 745 0
-122 746 0
123 -122 -27 0
-123 122 0
-123 27 0
124 -747 -121 0
-124 747 0
-124 121 0
125 -41 -19 0
-125 41 0
-125 19 0
126 -125 -748 0
-126 125 0
-126 748 0
127 -749 -124 0
-127 749 0
-127 124 0
128 -7 -1 0
-128 7 0
-128 1 0
129 -128 -750 0
-129 128 0
-129 750 0
130 -751 -127 0
-130 751 0
-130 127 0
131 -17 -13 0
-131 17 0
-131 13 0
132 -131 -12 0
-132 131 0
-132 12 0
133 -752 -130 0
-133 752 0
-133 130 0
134 -21 -5 0
-134 21 0
-134 5 0
135 -134 -42 0
-135 134 0
-135 42 0
136 -753 -133 0
-136 753 0
-136 133 0
137 -726 -21 0
-137 726 0
-137 21 0
138 -137 -748 0
-138 137 0
-138 748 0
139 -754 -136 0
-139 754 0
-139 136 0
140 -34 -7 0
-140 34 0
-140 7 0
141 -140 -3 0
-141 140 0
-141 3 0
142 -755 -139 0
-142 755 0
-142 139 0
143 -756 -700 0
-143 756 0
-143 700 0
144 -143 -748 0
-144 143 0
-144 748 0
145 -757 -142 0
-145 757 0
-145 142 0
146 -43 -720 0
-146 43 0
-146 720 0
147 -146 -758 0
-147 146 0
-147 758 0
148 -759 -145 0
-148 759 0
-148 145 0
149 -35 -716 0
-149 35 0
-149 716 0
150 -149 -3 0
-150 149 0
-150 3 0
151 -760 -148 0
-151 760 0
-151 148 0
152 -736 -23 0
-152 736 0
-152 23 0
153 -152 -748 0
-153 152 0
-153 748 0
154 -761 -151 0
-154 761 0
-154 151 0
155 -43 -700 0
-155 43 0
-155 700 0
156 -155 -719 0
-156 155 0
-156 719 0
157 -762 -154 0
-157 762 0
-157 154 0
158 -763 -4 0
-158 763 0
-158 4 0
159 -158 -31 0
-159 158 0
-159 31 0
160 -764 -157 0
-160 764 0
-160 157 0
161 -42 -732 0
-161 42 0
-161 732 0
162 -161 -712 0
-162 161 0
-162 712 0
163 -765 -160 0
-163 765 0
-163 160 0
164 -23 -766 0
-164 23 0
-164 766 0
165 -164 -41 0
-165 164 0
-165 41 0
166 -767 -163 0
-166 767 0
-166 163 0
167 -43 -768 0
-167 43 0
-167 768 0
168 -167 -758 0
-168 167 0
-168 758 0
169 -769 -166 0
-169 769 0
-169 166 0
170 -8 -770 0
-170 8 0
-170 770 0
171 -170 -715 0
-171 170 0
-171 715 0
172 -771 -169 0
-172 771 0
-172 169 0
173 -736 -746 0
-173 736 0
-173 746 0
174 -173 -772 0
-174 173 0
-174 772 0
175 -773 -172 0
-175 773 0
-175 172 0
176 -774 -7 0
-176 774 0
-176 7 0
177 -176 -27 0
-177 176 0
-177 27 0
178 -775 -175 0
-178 775 0
-178 175 0
179 -30 -7 0
-179 30 0
-179 7 0
180 -179 -45 0
-180 179 0
-180 45 0
181 -776 -178 0
-181 776 0
-181 178 0
182 -41 -25 0
-182 41 0
-182 25 0
183 -182 -777 0
-183 182 0
-183 777 0
184 -778 -181 0
-184 778 0
-184 181 0
185 -16 -7 0
-185 16 0
-185 7 0
186 -185 -779 0
-186 185 0
-186 779 0
187 -780 -184 0
-187 780 0
-187 184 0
188 -745 -756 0
-188 745 0
-188 756 0
189 -188 -24 0
-189 188 0
-189 24 0
190 -781 -187 0
-190 781 0
-190 187 0
191 -774 -732 0
-191 774 0
-191 732 0
192 -191 -47 0
-192 191 0
-192 47 0
193 -782 -190 0
-193 782 0
-193 190 0
194 -756 -7 0
-194 756 0
-194 7 0
195 -194 -31 0
-195 194 0
-195 31 0
196 -783 -193 0
-196 783 0
-196 193 0
197 -17 -715 0
-197 17 0
-197 715 0
198 -197 -48 0
-198 197 0
-198 48 0
199 -784 -196 0
-199 784 0
-199 196 0
200 -13 -2 0
-200 13 0
-200 2 0
201 -200 -777 0
-201 200 0
-201 777 0
202 -785 -199 0
-202 785 0
-202 199 0
203 -756 -18 0
-203 756 0
-203 18 0
204 -203 -27 0
-204 203 0
-204 27 0
205 -786 -202 0
-205 786 0
-205 202 0
206 -29 -720 0
-206 29 0
-206 720 0
207 -206 -787 0
-207 206 0
-207 787 0
208 -788 -205 0
-208 788 0
-208 205 0
209 -716 -17 0
-209 716 0
-209 17 0
210 -209 -787 0
-210 209 0
-210 787 0
211 -789 -208 0
-211 789 0
-211 208 0
212 -35 -9 0
-212 35 0
-212 9 0
213 -212 -742 0
-213 212 0
-213 742 0
214 -790 -211 0
-214 790 0
-214 211 0
215 -8 -1 0
-215 8 0
-215 1 0
216 -215 -772 0
-216 215 0
-216 772 0
217 -791 -214 0
-217 791 0
-217 214 0
218 -772 -32 0
-218 772 0
-218 32 0
219 -218 -745 0
-219 218 0
-219 745 0
220 -792 -217 0
-220 792 0
-220 217 0
221 -25 -13 0
-221 25 0
-221 13 0
222 -221 -12 0
-222 221 0
-222 12 0
223 -793 -220 0
-223 793 0
-223 220 0
224 -47 -25 0
-224 47 0
-224 25 0
225 -224 -27 0
-225 224 0
-225 27 0
226 -794 -223 0
-226 794 0
-226 223 0
227 -23 -19 0
-227 23 0
-227 19 0
228 -227 -779 0
-228 227 0
-228 779 0
229 -795 -226 0
-229 795 0
-229 226 0
230 -8 -729 0
-230 8 0
-230 729 0
231 -230 -742 0
-231 230 0
-231 742 0
232 -796 -229 0
-232 796 0
-232 229 0
233 -750 -19 0
-233 750 0
-233 19 0
234 -233 -20 0
-234 233 0
-234 20 0
235 -797 -232 0
-235 797 0
-235 232 0
236 -798 -8 0
-236 798 0
-236 8 0
237 -236 -12 0
-237 236 0
-237 12 0
238 -799 -235 0
-238 799 0
-238 235 0
239 -47 -17 0
-239 47 0
-239 17 0
240 -239 -800 0
-240 239 0
-240 800 0
241 -801 -238 0
-241 801 0
-241 238 0
242 -43 -756 0
-242 43 0
-242 756 0
243 -242 -715 0
-243 242 0
-243 715 0
244 -802 -241 0
-244 802 0
-244 241 0
245 -707 -9 0
-245 707 0
-245 9 0
246 -245 -719 0
-246 245 0
-246 719 0
247 -803 -244 0
-247 803 0
-247 244 0
248 -22 -702 0
-248 22 0
-248 702 0
249 -248 -3 0
-249 248 0
-249 3 0
250 -804 -247 0
-250 804 0
-250 247 0
251 -39 -805 0
-251 39 0
-251 805 0
252 -251 -15 0
-252 251 0
-252 15 0
253 -806 -250 0
-253 806 0
-253 250 0
254 -722 -23 0
-254 722 0
-254 23 0
255 -254 -45 0
-255 254 0
-255 45 0
256 -807 -253 0
-256 807 0
-256 253 0
257 -37 -8 0
-257 37 0
-257 8 0
258 -257 -798 0
-258 257 0
-258 798 0
259 -808 -256 0
-259 808 0
-259 256 0
260 -95 -750 0
-260 95 0
-260 750 0
261 -809 -259 0
-261 809 0
-261 259 0
262 -16 -743 0
-262 16 0
-262 743 0
263 -262 -715 0
-263 262 0
-263 715 0
264 -810 -261 0
-264 810 0
-264 261 0
265 -10 -1 0
-265 10 0
-265 1 0
266 -265 -15 0
-266 265 0
-266 15 0
267 -811 -264 0
-267 811 0
-267 264 0
268 -47 -787 0
-268 47 0
-268 787 0
269 -268 -15 0
-269 268 0
-269 15 0
270 -812 -267 0
-270 812 0
-270 267 0
271 -736 -715 0
-271 736 0
-271 715 0
272 -271 -37 0
-272 271 0
-272 37 0
273 -813 -270 0
-273 813 0
-273 270 0
274 -756 -814 0
-274 756 0
-274 814 0
275 -274 -24 0
-275 274 0
-275 24 0
276 -815 -273 0
-276 815 0
-276 273 0
277 -742 -816 0
-277 742 0
-277 816 0
278 -277 -705 0
-278 277 0
-278 705 0
279 -817 -276 0
-279 817 0
-279 276 0
280 -739 -736 0
-280 739 0
-280 736 0
281 -280 -20 0
-281 280 0
-281 20 0
282 -818 -279 0
-282 818 0
-282 279 0
283 -722 -711 0
-283 722 0
-283 711 0
284 -283 -770 0
-284 283 0
-284 770 0
285 -819 -282 0
-285 819 0
-285 282 0
286 -45 -16 0
-286 45 0
-286 16 0
287 -286 -787 0
-287 286 0
-287 787 0
288 -820 -285 0
-288 820 0
-288 285 0
289 -779 -697 0
-289 779 0
-289 697 0
290 -289 -777 0
-290 289 0
-290 777 0
291 -821 -288 0
-291 821 0
-291 288 0
292 -16 -702 0
-292 16 0
-292 702 0
293 -292 -777 0
-293 292 0
-293 777 0
294 -822 -291 0
-294 822 0
-294 291 0
295 -18 -823 0
-295 18 0
-295 823 0
296 -295 -712 0
-296 295 0
-296 712 0
297 -824 -294 0
-297 824 0
-297 294 0
298 -11 -4 0
-298 11 0
-298 4 0
299 -298 -41 0
-299 298 0
-299 41 0
300 -825 -297 0
-300 825 0
-300 297 0
301 -35 -6 0
-301 35 0
-301 6 0
302 -301 -2 0
-302 301 0
-302 2 0
303 -826 -300 0
-303 826 0
-303 300 0
304 -827 -11 0
-304 827 0
-304 11 0
305 -304 -22 0
-305 304 0
-305 22 0
306 -828 -303 0
-306 828 0
-306 303 0
307 -36 -708 0
-307 36 0
-307 708 0
308 -307 -37 0
-308 307 0
-308 37 0
309 -829 -306 0
-309 829 0
-309 306 0
310 -756 -711 0
-310 756 0
-310 711 0
311 -310 -763 0
-311 310 0
-311 763 0
312 -830 -309 0
-312 830 0
-312 309 0
313 -763 -18 0
-313 763 0
-313 18 0
314 -313 -27 0
-314 313 0
-314 27 0
315 -831 -312 0
-315 831 0
-315 312 0
316 -774 -743 0
-316 774 0
-316 743 0
317 -316 -40 0
-317 316 0
-317 40 0
318 -832 -315 0
-318 832 0
-318 315 0
319 -711 -4 0
-319 711 0
-319 4 0
320 -319 -763 0
-320 319 0
-320 763 0
321 -833 -318 0
-321 833 0
-321 318 0
322 -32 -6 0
-322 32 0
-322 6 0
323 -322 -708 0
-323 322 0
-323 708 0
324 -834 -321 0
-324 834 0
-324 321 0
325 -732 -4 0
-325 732 0
-325 4 0
326 -325 -11 0
-326 325 0
-326 11 0
327 -835 -324 0
-327 835 0
-327 324 0
328 -722 -25 0
-328 722 0
-328 25 0
329 -328 -49 0
-329 328 0
-329 49 0
330 -836 -327 0
-330 836 0
-330 327 0
331 -739 -19 0
-331 739 0
-331 19 0
332 -331 -724 0
-332 331 0
-332 724 0
333 -837 -330 0
-333 837 0
-333 330 0
334 -774 -2 0
-334 774 0
-334 2 0
335 -334 -37 0
-335 334 0
-335 37 0
336 -838 -333 0
-336 838 0
-336 333 0
337 -37 -6 0
-337 37 0
-337 6 0
338 -337 -15 0
-338 337 0
-338 15 0
339 -839 -336 0
-339 839 0
-339 336 0
340 -708 -9 0
-340 708 0
-340 9 0
341 -340 -38 0
-341 340 0
-341 38 0
342 -840 -339 0
-342 840 0
-342 339 0
343 -841 -22 0
-343 841 0
-343 22 0
344 -343 -763 0
-344 343 0
-344 763 0
345 -842 -342 0
-345 842 0
-345 342 0
346 -814 -805 0
-346 814 0
-346 805 0
347 -346 -29 0
-347 346 0
-347 29 0
348 -843 -345 0
-348 843 0
-348 345 0
349 -28 -766 0
-349 28 0
-349 766 0
350 -349 -25 0
-350 349 0
-350 25 0
351 -844 -348 0
-351 844 0
-351 348 0
352 -805 -707 0
-352 805 0
-352 707 0
353 -352 -726 0
-353 352 0
-353 726 0
354 -845 -351 0
-354 845 0
-354 351 0
355 -719 -708 0
-355 719 0
-355 708 0
356 -355 -724 0
-356 355 0
-356 724 0
357 -846 -354 0
-357 846 0
-357 354 0
358 -33 -707 0
-358 33 0
-358 707 0
359 -358 -15 0
-359 358 0
-359 15 0
360 -847 -357 0
-360 847 0
-360 357 0
361 -777 -738 0
-361 777 0
-361 738 0
362 -361 -712 0
-362 361 0
-362 712 0
363 -848 -360 0
-363 848 0
-363 360 0
364 -46 -23 0
-364 46 0
-364 23 0
365 -364 -748 0
-365 364 0
-365 748 0
366 -849 -363 0
-366 849 0
-366 363 0
367 -41 -702 0
-367 41 0
-367 702 0
368 -367 -712 0
-368 367 0
-368 712 0
369 -850 -366 0
-369 850 0
-369 366 0
370 -25 -2 0
-370 25 0
-370 2 0
371 -370 -49 0
-371 370 0
-371 49 0
372 -851 -369 0
-372 851 0
-372 369 0
373 -9 -1 0
-373 9 0
-373 1 0
374 -373 -768 0
-374 373 0
-374 768 0
375 -852 -372 0
-375 852 0
-375 372 0
376 -20 -16 0
-376 20 0
-376 16 0
377 -376 -45 0
-377 376 0
-377 45 0
378 -853 -375 0
-378 853 0
-378 375 0
379 -17 -8 0
-379 17 0
-379 8 0
380 -379 -36 0
-380 379 0
-380 36 0
381 -854 -378 0
-381 854 0
-381 378 0
382 -739 -25 0
-382 739 0
-382 25 0
383 -382 -42 0
-383 382 0
-383 42 0
384 -855 -381 0
-384 855 0
-384 381 0
385 -21 -17 0
-385 21 0
-385 17 0
386 -385 -787 0
-386 385 0
-386 787 0
387 -856 -384 0
-387 856 0
-387 384 0
388 -779 -746 0
-388 779 0
-388 746 0
389 -388 -729 0
-389 388 0
-389 729 0
390 -857 -387 0
-390 857 0
-390 387 0
391 -710 -17 0
-391 710 0
-391 17 0
392 -391 -742 0
-392 391 0
-392 742 0
393 -858 -390 0
-393 858 0
-393 390 0
394 -716 -5 0
-394 716 0
-394 5 0
395 -394 -859 0
-395 394 0
-395 859 0
396 -860 -393 0
-396 860 0
-396 393 0
397 -35 -702 0
-397 35 0
-397 702 0
398 -397 -707 0
-398 397 0
-398 707 0
399 -861 -396 0
-399 861 0
-399 396 0
400 -35 -715 0
-400 35 0
-400 715 0
401 -400 -726 0
-401 400 0
-401 726 0
402 -862 -399 0
-402 862 0
-402 399 0
403 -711 -6 0
-403 711 0
-403 6 0
404 -403 -736 0
-404 403 0
-404 736 0
405 -863 -402 0
-405 863 0
-405 402 0
406 -746 -700 0
-406 746 0
-406 700 0
407 -406 -45 0
-407 406 0
-407 45 0
408 -864 -405 0
-408 864 0
-408 405 0
409 -28 -18 0
-409 28 0
-409 18 0
410 -409 -34 0
-410 409 0
-410 34 0
411 -865 -408 0
-411 865 0
-411 408 0
412 -274 -34 0
-412 274 0
-412 34 0
413 -866 -411 0
-413 866 0
-413 411 0
414 -30 -770 0
-414 30 0
-414 770 0
415 -414 -867 0
-415 414 0
-415 867 0
416 -868 -413 0
-416 868 0
-416 413 0
417 -772 -37 0
-417 772 0
-417 37 0
418 -417 -748 0
-418 417 0
-418 748 0
419 -869 -416 0
-419 869 0
-419 416 0
420 -779 -21 0
-420 779 0
-420 21 0
421 -420 -724 0
-421 420 0
-421 724 0
422 -870 -419 0
-422 870 0
-422 419 0
423 -43 -18 0
-423 43 0
-423 18 0
424 -423 -827 0
-424 423 0
-424 827 0
425 -871 -422 0
-425 871 0
-425 422 0
426 -814 -19 0
-426 814 0
-426 19 0
427 -426 -710 0
-427 426 0
-427 710 0
428 -872 -425 0
-428 872 0
-428 425 0
429 -49 -746 0
-429 49 0
-429 746 0
430 -429 -763 0
-430 429 0
-430 763 0
431 -873 -428 0
-431 873 0
-431 428 0
432 -28 -805 0
-432 28 0
-432 805 0
433 -432 -745 0
-433 432 0
-433 745 0
434 -874 -431 0
-434 874 0
-434 431 0
435 -46 -743 0
-435 46 0
-435 743 0
436 -435 -40 0
-436 435 0
-436 40 0
437 -875 -434 0
-437 875 0
-437 434 0
438 -47 -6 0
-438 47 0
-438 6 0
439 -438 -816 0
-439 438 0
-439 816 0
440 -876 -437 0
-440 876 0
-440 437 0
441 -814 -13 0
-441 814 0
-441 13 0
442 -441 -841 0
-442 441 0
-442 841 0
443 -877 -440 0
-443 877 0
-443 440 0
444 -164 -772 0
-444 164 0
-444 772 0
445 -878 -443 0
-445 878 0
-445 443 0
446 -711 -702 0
-446 711 0
-446 702 0
447 -446 -867 0
-447 446 0
-447 867 0
448 -879 -445 0
-448 879 0
-448 445 0
449 -45 -17 0
-449 45 0
-449 17 0
450 -449 -768 0
-450 449 0
-450 768 0
451 -880 -448 0
-451 880 0
-451 448 0
452 -736 -8 0
-452 736 0
-452 8 0
453 -452 -745 0
-453 452 0
-453 745 0
454 -881 -451 0
-454 881 0
-454 451 0
455 -30 -710 0
-455 30 0
-455 710 0
456 -455 -37 0
-456 455 0
-456 37 0
457 -882 -454 0
-457 882 0
-457 454 0
458 -45 -4 0
-458 45 0
-458 4 0
459 -458 -787 0
-459 458 0
-459 787 0
460 -883 -457 0
-460 883 0
-460 457 0
461 -41 -20 0
-461 41 0
-461 20 0
462 -461 -712 0
-462 461 0
-462 712 0
463 -884 -460 0
-463 884 0
-463 460 0
464 -152 -841 0
-464 152 0
-464 841 0
465 -885 -463 0
-465 885 0
-465 463 0
466 -800 -774 0
-466 800 0
-466 774 0
467 -466 -748 0
-467 466 0
-467 748 0
468 -886 -465 0
-468 886 0
-468 465 0
469 -25 -766 0
-469 25 0
-469 766 0
470 -469 -729 0
-470 469 0
-470 729 0
471 -887 -468 0
-471 887 0
-471 468 0
472 -816 -2 0
-472 816 0
-472 2 0
473 -472 -719 0
-473 472 0
-473 719 0
474 -888 -471 0
-474 888 0
-474 471 0
475 -7 -770 0
-475 7 0
-475 770 0
476 -475 -705 0
-476 475 0
-476 705 0
477 -889 -474 0
-477 889 0
-477 474 0
478 -44 -38 0
-478 44 0
-478 38 0
479 -478 -748 0
-479 478 0
-479 748 0
480 -890 -477 0
-480 890 0
-480 477 0
481 -37 -33 0
-481 37 0
-481 33 0
482 -481 -748 0
-482 481 0
-482 748 0
483 -891 -480 0
-483 891 0
-483 480 0
484 -24 -4 0
-484 24 0
-484 4 0
485 -484 -34 0
-485 484 0
-485 34 0
486 -892 -483 0
-486 892 0
-486 483 0
487 -43 -17 0
-487 43 0
-487 17 0
488 -487 -19 0
-488 487 0
-488 19 0
489 -893 -486 0
-489 893 0
-489 486 0
490 -42 -30 0
-490 42 0
-490 30 0
491 -490 -763 0
-491 490 0
-491 763 0
492 -894 -489 0
-492 894 0
-492 489 0
493 -35 -33 0
-493 35 0
-493 33 0
494 -493 -30 0
-494 493 0
-494 30 0
495 -895 -492 0
-495 895 0
-495 492 0
496 -46 -774 0
-496 46 0
-496 774 0
497 -496 -841 0
-497 496 0
-497 841 0
498 -896 -495 0
-498 896 0
-498 495 0
499 -738 -716 0
-499 738 0
-499 716 0
500 -499 -5 0
-500 499 0
-500 5 0
501 -897 -498 0
-501 897 0
-501 498 0
502 -738 -719 0
-502 738 0
-502 719 0
503 -502 -39 0
-503 502 0
-503 39 0
504 -898 -501 0
-504 898 0
-504 501 0
505 -242 -20 0
-505 242 0
-505 20 0
506 -899 -504 0
-506 899 0
-506 504 0
507 -49 -42 0
-507 49 0
-507 42 0
508 -507 -724 0
-508 507 0
-508 724 0
509 -900 -506 0
-509 900 0
-509 506 0
510 -720 -746 0
-510 720 0
-510 746 0
511 -510 -5 0
-511 510 0
-511 5 0
512 -901 -509 0
-512 901 0
-512 509 0
513 -738 -21 0
-513 738 0
-513 21 0
514 -513 -724 0
-514 513 0
-514 724 0
515 -902 -512 0
-515 902 0
-515 512 0
516 -34 -719 0
-516 34 0
-516 719 0
517 -516 -787 0
-517 516 0
-517 787 0
518 -903 -515 0
-518 903 0
-518 515 0
519 -50 -715 0
-519 50 0
-519 715 0
520 -519 -705 0
-520 519 0
-520 705 0
521 -904 -518 0
-521 904 0
-521 518 0
522 -779 -1 0
-522 779 0
-522 1 0
523 -522 -40 0
-523 522 0
-523 40 0
524 -905 -521 0
-524 905 0
-524 521 0
525 -720 -8 0
-525 720 0
-525 8 0
526 -525 -38 0
-526 525 0
-526 38 0
527 -906 -524 0
-527 906 0
-527 524 0
528 -49 -24 0
-528 49 0
-528 24 0
529 -528 -705 0
-529 528 0
-529 705 0
530 -907 -527 0
-530 907 0
-530 527 0
531 -39 -13 0
-531 39 0
-531 13 0
532 -531 -763 0
-532 531 0
-532 763 0
533 -908 -530 0
-533 908 0
-533 530 0
534 -909 -11 0
-534 909 0
-534 11 0
535 -534 -25 0
-535 534 0
-535 25 0
536 -910 -533 0
-536 910 0
-536 533 0
537 -25 -707 0
-537 25 0
-537 707 0
538 -537 -758 0
-538 537 0
-538 758 0
539 -911 -536 0
-539 911 0
-539 536 0
540 -779 -6 0
-540 779 0
-540 6 0
541 -540 -777 0
-541 540 0
-541 777 0
542 -912 -539 0
-542 912 0
-542 539 0
543 -34 -22 0
-543 34 0
-543 22 0
544 -543 -787 0
-544 543 0
-544 787 0
545 -913 -542 0
-545 913 0
-545 542 0
546 -823 -5 0
-546 823 0
-546 5 0
547 -546 -49 0
-547 546 0
-547 49 0
548 -914 -545 0
-548 914 0
-548 545 0
549 -772 -756 0
-549 772 0
-549 756 0
550 -549 -40 0
-550 549 0
-550 40 0
551 -915 -548 0
-551 915 0
-551 548 0
552 -23 -17 0
-552 23 0
-552 17 0
553 -552 -729 0
-553 552 0
-553 729 0
554 -916 -551 0
-554 916 0
-554 551 0
555 -772 -743 0
-555 772 0
-555 743 0
556 -555 -31 0
-556 555 0
-556 31 0
557 -917 -554 0
-557 917 0
-557 554 0
558 -909 -8 0
-558 909 0
-558 8 0
559 -558 -800 0
-559 558 0
-559 800 0
560 -918 -557 0
-560 918 0
-560 557 0
561 -48 -20 0
-561 48 0
-561 20 0
562 -561 -15 0
-562 561 0
-562 15 0
563 -919 -560 0
-563 919 0
-563 560 0
564 -841 -5 0
-564 841 0
-564 5 0
565 -564 -705 0
-565 564 0
-565 705 0
566 -920 -563 0
-566 920 0
-566 563 0
567 -33 -11 0
-567 33 0
-567 11 0
568 -567 -25 0
-568 567 0
-568 25 0
569 -921 -566 0
-569 921 0
-569 566 0
570 -714 -711 0
-570 714 0
-570 711 0
571 -570 -3 0
-571 570 0
-571 3 0
572 -922 -569 0
-572 922 0
-572 569 0
573 -774 -702 0
-573 774 0
-573 702 0
574 -573 -45 0
-574 573 0
-574 45 0
575 -923 -572 0
-575 923 0
-575 572 0
576 -30 -10 0
-576 30 0
-576 10 0
577 -576 -707 0
-577 576 0
-577 707 0
578 -924 -575 0
-578 924 0
-578 575 0
579 -38 -716 0
-579 38 0
-579 716 0
580 -579 -49 0
-580 579 0
-580 49 0
581 -925 -578 0
-581 925 0
-581 578 0
582 -805 -1 0
-582 805 0
-582 1 0
583 -582 -38 0
-583 582 0
-583 38 0
584 -926 -581 0
-584 926 0
-584 581 0
585 -20 -743 0
-585 20 0
-585 743 0
586 -585 -805 0
-586 585 0
-586 805 0
587 -927 -584 0
-587 927 0
-587 584 0
588 -25 -768 0
-588 25 0
-588 768 0
589 -588 -859 0
-589 588 0
-589 859 0
590 -928 -587 0
-590 928 0
-590 587 0
591 -736 -766 0
-591 736 0
-591 766 0
592 -591 -21 0
-592 591 0
-592 21 0
593 -929 -590 0
-593 929 0
-593 590 0
594 -47 -23 0
-594 47 0
-594 23 0
595 -594 -726 0
-595 594 0
-595 726 0
596 -930 -593 0
-596 930 0
-596 593 0
597 -827 -729 0
-597 827 0
-597 729 0
598 -597 -27 0
-598 597 0
-598 27 0
599 -931 -596 0
-599 931 0
-599 596 0
600 -33 -4 0
-600 33 0
-600 4 0
601 -600 -768 0
-601 600 0
-601 768 0
602 -932 -599 0
-602 932 0
-602 599 0
603 -707 -6 0
-603 707 0
-603 6 0
604 -603 -24 0
-604 603 0
-604 24 0
605 -933 -602 0
-605 933 0
-605 602 0
606 -37 -726 0
-606 37 0
-606 726 0
607 -606 -768 0
-607 606 0
-607 768 0
608 -934 -605 0
-608 934 0
-608 605 0
609 -708 -2 0
-609 708 0
-609 2 0
610 -609 -724 0
-610 609 0
-610 724 0
611 -935 -608 0
-611 935 0
-611 608 0
612 -708 -4 0
-612 708 0
-612 4 0
613 -612 -798 0
-613 612 0
-613 798 0
614 -936 -611 0
-614 936 0
-614 611 0
615 -38 -770 0
-615 38 0
-615 770 0
616 -615 -758 0
-616 615 0
-616 758 0
617 -937 -614 0
-617 937 0
-617 614 0
618 -798 -25 0
-618 798 0
-618 25 0
619 -618 -758 0
-619 618 0
-619 758 0
620 -938 -617 0
-620 938 0
-620 617 0
621 -43 -746 0
-621 43 0
-621 746 0
622 -621 -8 0
-622 621 0
-622 8 0
623 -939 -620 0
-623 939 0
-623 620 0
624 -19 -715 0
-624 19 0
-624 715 0
625 -624 -38 0
-625 624 0
-625 38 0
626 -940 -623 0
-626 940 0
-626 623 0
627 -909 -774 0
-627 909 0
-627 774 0
628 -627 -44 0
-628 627 0
-628 44 0
629 -941 -626 0
-629 941 0
-629 626 0
630 -750 -710 0
-630 750 0
-630 710 0
631 -630 -41 0
-631 630 0
-631 41 0
632 -942 -629 0
-632 942 0
-632 629 0
633 -37 -17 0
-633 37 0
-633 17 0
634 -633 -12 0
-634 633 0
-634 12 0
635 -943 -632 0
-635 943 0
-635 632 0
636 -17 -702 0
-636 17 0
-636 702 0
637 -636 -8 0
-637 636 0
-637 8 0
638 -944 -635 0
-638 944 0
-638 635 0
639 -772 -722 0
-639 772 0
-639 722 0
640 -639 -800 0
-640 639 0
-640 800 0
641 -945 -638 0
-641 945 0
-641 638 0
642 -21 -4 0
-642 21 0
-642 4 0
643 -642 -779 0
-643 642 0
-643 779 0
644 -946 -641 0
-644 946 0
-644 641 0
645 -772 -700 0
-645 772 0
-645 700 0
646 -645 -39 0
-646 645 0
-646 39 0
647 -947 -644 0
-647 947 0
-647 644 0
648 -816 -707 0
-648 816 0
-648 707 0
649 -648 -779 0
-649 648 0
-649 779 0
650 -948 -647 0
-650 948 0
-650 647 0
651 -841 -739 0
-651 841 0
-651 739 0
652 -651 -48 0
-652 651 0
-652 48 0
653 -949 -650 0
-653 949 0
-653 650 0
654 -732 -770 0
-654 732 0
-654 770 0
655 -654 -768 0
-655 654 0
-655 768 0
656 -950 -653 0
-656 950 0
-656 653 0
657 -39 -867 0
-657 39 0
-657 867 0
658 -657 -758 0
-658 657 0
-658 758 0
659 -951 -656 0
-659 951 0
-659 656 0
660 -745 -22 0
-660 745 0
-660 22 0
661 -660 -31 0
-661 660 0
-661 31 0
662 -952 -659 0
-662 952 0
-662 659 0
663 -37 -10 0
-663 37 0
-663 10 0
664 -663 -738 0
-664 663 0
-664 738 0
665 -953 -662 0
-665 953 0
-665 662 0
666 -841 -20 0
-666 841 0
-666 20 0
667 -666 -27 0
-667 666 0
-667 27 0
668 -954 -665 0
-668 954 0
-668 665 0
669 -841 -23 0
-669 841 0
-669 23 0
670 -669 -859 0
-670 669 0
-670 859 0
671 -955 -668 0
-671 955 0
-671 668 0
672 -37 -7 0
-672 37 0
-672 7 0
673 -672 -745 0
-673 672 0
-673 745 0
674 -956 -671 0
-674 956 0
-674 671 0
675 -722 -805 0
-675 722 0
-675 805 0
676 -675 -5 0
-676 675 0
-676 5 0
677 -957 -674 0
-677 957 0
-677 674 0
678 -499 -29 0
-678 499 0
-678 29 0
679 -958 -677 0
-679 958 0
-679 677 0
680 -33 -6 0
-680 33 0
-680 6 0
681 -680 -16 0
-681 680 0
-681 16 0
682 -959 -679 0
-682 959 0
-682 679 0
683 -28 -708 0
-683 28 0
-683 708 0
684 -683 -14 0
-684 683 0
-684 14 0
685 -960 -682 0
-685 960 0
-685 682 0
686 -6 -2 0
-686 6 0
-686 2 0
687 -686 -41 0
-687 686 0
-687 41 0
688 -961 -685 0
-688 961 0
-688 685 0
689 -683 -44 0
-689 683 0
-689 44 0
690 -962 -688 0
-690 962 0
-690 688 0
691 -756 -21 0
-691 756 0
-691 21 0
692 -691 -798 0
-692 691 0
-692 798 0
693 -963 -690 0
-693 963 0
-693 690 0
694 -33 -746 0
-694 33 0
-694 746 0
695 -694 -768 0
-695 694 0
-695 768 0
696 -964 -693 0
-696 964 0
-696 693 0
-697 -1 0
697 1 0
-698 -54 0
698 54 0
-699 -52 0
699 52 0
-700 -6 0
700 6 0
-701 -57 0
701 57 0
-702 -9 0
702 9 0
-703 -60 0
703 60 0
-704 -63 0
704 63 0
-705 -14 0
705 14 0
-706 -66 0
706 66 0
-707 -16 0
707 16 0
-708 -10 0
708 10 0
-709 -69 0
709 69 0
-710 -18 0
710 18 0
-711 -17 0
711 17 0
-712 -15 0
712 15 0
-713 -72 0
713 72 0
-714 -19 0
714 19 0
-715 -2 0
715 2 0
-716 -20 0
716 20 0
-717 -75 0
717 75 0
-718 -78 0
718 78 0
-719 -24 0
719 24 0
-720 -23 0
720 23 0
-721 -81 0
721 81 0
-722 -26 0
722 26 0
-723 -84 0
723 84 0
-724 -27 0
724 27 0
-725 -87 0
725 87 0
-726 -29 0
726 29 0
-727 -90 0
727 90 0
-728 -93 0
728 93 0
-729 -5 0
729 5 0
-730 -96 0
730 96 0
-731 -99 0
731 99 0
-732 -32 0
732 32 0
-733 -102 0
733 102 0
-734 -105 0
734 105 0
-735 -108 0
735 108 0
-736 -33 0
736 33 0
-737 -111 0
737 111 0
-738 -38 0
738 38 0
-739 -37 0
739 37 0
-740 -114 0
740 114 0
-741 -117 0
741 117 0
-742 -39 0
742 39 0
-743 -13 0
743 13 0
-744 -120 0
744 120 0
-745 -41 0
745 41 0
-746 -7 0
746 7 0
-747 -123 0
747 123 0
-748 -34 0
748 34 0
-749 -126 0
749 126 0
-750 -28 0
750 28 0
-751 -129 0
751 129 0
-752 -132 0
752 132 0
-753 -135 0
753 135 0
-754 -138 0
754 138 0
-755 -141 0
755 141 0
-756 -35 0
756 35 0
-757 -144 0
757 144 0
-758 -22 0
758 22 0
-759 -147 0
759 147 0
-760 -150 0
760 150 0
-761 -153 0
761 153 0
-762 -156 0
762 156 0
-763 -40 0
763 40 0
-764 -159 0
764 159 0
-765 -162 0
765 162 0
-766 -8 0
766 8 0
-767 -165 0
767 165 0
-768 -12 0
768 12 0
-769 -168 0
769 168 0
-770 -4 0
770 4 0
-771 -171 0
771 171 0
-772 -44 0
772 44 0
-773 -174 0
773 174 0
-774 -43 0
774 43 0
-775 -177 0
775 177 0
-776 -180 0
776 180 0
-777 -42 0
777 42 0
-778 -183 0
778 183 0
-779 -46 0
779 46 0
-780 -186 0
780 186 0
-781 -189 0
781 189 0
-782 -192 0
782 192 0
-783 -195 0
783 195 0
-784 -198 0
784 198 0
-785 -201 0
785 201 0
-786 -204 0
786 204 0
-787 -31 0
787 31 0
-788 -207 0
788 207 0
-789 -210 0
789 210 0
-790 -213 0
790 213 0
-791 -216 0
791 216 0
-792 -219 0
792 219 0
-793 -222 0
793 222 0
-794 -225 0
794 225 0
-795 -228 0
795 228 0
-796 -231 0
796 231 0
-797 -234 0
797 234 0
-798 -49 0
798 49 0
-799 -237 0
799 237 0
-800 -50 0
800 50 0
-801 -240 0
801 240 0
-802 -243 0
802 243 0
-803 -246 0
803 246 0
-804 -249 0
804 249 0
-805 -21 0
805 21 0
-806 -252 0
806 252 0
-807 -255 0
807 255 0
-808 -258 0
808 258 0
-809 -260 0
809 260 0
-810 -263 0
810 263 0
-811 -266 0
811 266 0
-812 -269 0
812 269 0
-813 -272 0
813 272 0
-814 -30 0
814 30 0
-815 -275 0
815 275 0
-816 -36 0
816 36 0
-817 -278 0
817 278 0
-818 -281 0
818 281 0
-819 -284 0
819 284 0
-820 -287 0
820 287 0
-821 -290 0
821 290 0
-822 -293 0
822 293 0
-823 -11 0
823 11 0
-824 -296 0
824 296 0
-825 -299 0
825 299 0
-826 -302 0
826 302 0
-827 -48 0
827 48 0
-828 -305 0
828 305 0
-829 -308 0
829 308 0
-830 -311 0
830 311 0
-831 -314 0
831 314 0
-832 -317 0
832 317 0
-833 -320 0
833 320 0
-834 -323 0
834 323 0
-835 -326 0
835 326 0
-836 -329 0
836 329 0
-837 -332 0
837 332 0
-838 -335 0
838 335 0
-839 -338 0
839 338 0
-840 -341 0
840 341 0
-841 -45 0
841 45 0
-842 -344 0
842 344 0
-843 -347 0
843 347 0
-844 -350 0
844 350 0
-845 -353 0
845 353 0
-846 -356 0
846 356 0
-847 -359 0
847 359 0
-848 -362 0
848 362 0
-849 -365 0
849 365 0
-850 -368 0
850 368 0
-851 -371 0
851 371 0
-852 -374 0
852 374 0
-853 -377 0
853 377 0
-854 -380 0
854 380 0
-855 -383 0
855 383 0
-856 -386 0
856 386 0
-857 -389 0
857 389 0
-858 -392 0
858 392 0
-859 -3 0
859 3 0
-860 -395 0
860 395 0
-861 -398 0
861 398 0
-862 -401 0
862 401 0
-863 -404 0
863 404 0
-864 -407 0
864 407 0
-865 -410 0
865 410 0
-866 -412 0
866 412 0
-867 -25 0
867 25 0
-868 -415 0
868 415 0
-869 -418 0
869 418 0
-870 -421 0
870 421 0
-871 -424 0
871 424 0
-872 -427 0
872 427 0
-873 -430 0
873 430 0
-874 -433 0
874 433 0
-875 -436 0
875 436 0
-876 -439 0
876 439 0
-877 -442 0
877 442 0
-878 -444 0
878 444 0
-879 -447 0
879 447 0
-880 -450 0
880 450 0
-881 -453 0
881 453 0
-882 -456 0
882 456 0
-883 -459 0
883 459 0
-884 -462 0
884 462 0
-885 -464 0
885 464 0
-886 -467 0
886 467 0
-887 -470 0
887 470 0
-888 -473 0
888 473 0
-889 -476 0
889 476 0
-890 -479 0
890 479 0
-891 -482 0
891 482 0
-892 -485 0
892 485 0
-893 -488 0
893 488 0
-894 -491 0
894 491 0
-895 -494 0
895 494 0
-896 -497 0
896 497 0
-897 -500 0
897 500 0
-898 -503 0
898 503 0
-899 -505 0
899 505 0
-900 -508 0
900 508 0
-901 -511 0
901 511 0
-902 -514 0
902 514 0
-903 -517 0
903 517 0
-904 -520 0
904 520 0
-905 -523 0
905 523 0
-906 -526 0
906 526 0
-907 -529 0
907 529 0
-908 -532 0
908 532 0
-909 -47 0
909 47 0
-910 -535 0
910 535 0
-911 -538 0
911 538 0
-912 -541 0
912 541 0
-913 -544 0
913 544 0
-914 -547 0
914 547 0
-915 -550 0
915 550 0
-916 -553 0
916 553 0
-917 -556 0
917 556 0
-918 -559 0
918 559 0
-919 -562 0
919 562 0
-920 -565 0
920 565 0
-921 -568 0
921 568 0
-922 -571 0
922 571 0
-923 -574 0
923 574 0
-924 -577 0
924 577 0
-925 -580 0
925 580 0
-926 -583 0
926 583 0
-927 -586 0
927 586 0
-928 -589 0
928 589 0
-929 -592 0
929 592 0
-930 -595 0
930 595 0
-931 -598 0
931 598 0
-932 -601 0
932 601 0
-933 -604 0
933 604 0
-934 -607 0
934 607 0
-935 -610 0
935 610 0
-936 -613 0
936 613 0
-937 -616 0
937 616 0
-938 -619 0
938 619 0
-939 -622 0
939 622 0
-940 -625 0
940 625 0
-941 -628 0
941 628 0
-942 -631 0
942 631 0
-943 -634 0
943 634 0
-944 -637 0
944 637 0
-945 -640 0
945 640 0
-946 -643 0
946 643 0
-947 -646 0
947 646 0
-948 -649 0
948 649 0
-949 -652 0
949 652 0
-950 -655 0
950 655 0
-951 -658 0
951 658 0
-952 -661 0
952 661 0
-953 -664 0
953 664 0
-954 -667 0
954 667 0
-955 -670 0
955 670 0
-956 -673 0
956 673 0
-957 -676 0
957 676 0
-958 -678 0
958 678 0
-959 -681 0
959 681 0
-960 -684 0
960 684 0
-961 -687 0
961 687 0
-962 -689 0
962 689 0
-963 -692 0
963 692 0
-964 -695 0
964 695 0
696 0
